55126
24, 50, 20, 37, 7, 40, 51, 13, 43, 3, 6, 28, 55, 26, 53, 34, 54, 47, 30, 4, 18, 12, 14, 9, 2, 42, 33, 1, 27, 25, 31, 11, 45, 52, 15, 36, 39, 46, 16, 10, 22, 29, 21, 23, 17, 48, 19, 49, 44, 38, 8, 32, 41, 5, 35
